c FILE /home/rafael/Documents/HappySet/MIHS/inputs/happygen/output/graph_d_regular_k5_p0.4_v50_20241127_082635.txt
c SOURCE This is a d-regular graph formed for the happy graph colouring problem.
c DESCRIPTION It was generated using the problem generator of Rhyd Lewis
c
c GRAPH STATS
c Seed                             = 1638517571
c Number of Nodes                  = 50
c Number of colours k              = 5
c Number of pre-assignments        = 20
c Degree of all vertices           = 6
c Density                          = 0.122449
c 
c The degrees of nodes 1 to 50, respectively, are as follows 
c [6, 6, 6, 6, 6, 6, 6, 6, 6, 6, 6, 6, 6, 6, 6, 6, 6, 6, 6, 6, 6, 6, 6, 6, 6, 6, 
c  6, 6, 6, 6, 6, 6, 6, 6, 6, 6, 6, 6, 6, 6, 6, 6, 6, 6, 6, 6, 6, 6, 6, 6] 
c  
p edge 50 150 5
e 1 8
e 1 14
e 1 22
e 1 36
e 1 47
e 1 48
e 2 5
e 2 8
e 2 18
e 2 19
e 2 33
e 2 37
e 3 4
e 3 12
e 3 28
e 3 29
e 3 37
e 3 48
e 4 22
e 4 27
e 4 30
e 4 45
e 4 50
e 5 8
e 5 11
e 5 19
e 5 22
e 5 40
e 6 9
e 6 18
e 6 19
e 6 35
e 6 39
e 6 48
e 7 18
e 7 26
e 7 27
e 7 31
e 7 34
e 7 44
e 8 12
e 8 22
e 8 36
e 9 16
e 9 20
e 9 35
e 9 36
e 9 50
e 10 13
e 10 21
e 10 24
e 10 28
e 10 41
e 10 44
e 11 27
e 11 31
e 11 34
e 11 38
e 11 44
e 12 19
e 12 29
e 12 41
e 12 42
e 13 16
e 13 25
e 13 29
e 13 33
e 13 43
e 14 17
e 14 32
e 14 38
e 14 41
e 14 43
e 15 16
e 15 31
e 15 33
e 15 34
e 15 37
e 15 42
e 16 26
e 16 31
e 16 34
e 17 18
e 17 24
e 17 32
e 17 39
e 17 46
e 18 23
e 18 30
e 19 23
e 19 31
e 20 28
e 20 29
e 20 32
e 20 34
e 20 41
e 21 25
e 21 28
e 21 38
e 21 44
e 21 46
e 22 23
e 22 24
e 23 24
e 23 35
e 23 49
e 24 32
e 24 42
e 25 28
e 25 29
e 25 42
e 25 43
e 26 40
e 26 46
e 26 48
e 26 49
e 27 30
e 27 37
e 27 49
e 28 47
e 29 45
e 30 39
e 30 43
e 30 50
e 31 35
e 32 41
e 32 46
e 33 36
e 33 45
e 33 49
e 34 35
e 35 40
e 36 37
e 36 49
e 37 50
e 38 42
e 38 44
e 38 49
e 39 43
e 39 47
e 39 48
e 40 41
e 40 45
e 40 46
e 42 47
e 43 44
e 45 47
e 45 50
e 46 50
e 47 48
n 1 3
n 2 4
n 3 1
n 4 1
n 5 4
n 6 5
n 7 4
n 12 1
n 13 5
n 14 3
n 17 3
n 23 2
n 26 4
n 28 1
n 30 1
n 31 4
n 32 3
n 42 1
n 45 1
n 50 1
